DATASET = "thpack4";
INSTANCE = "015";

WIDTH = 233;
HEIGHT = 220;
LENGTH = 587;

NO_OF_SHAPES = 10;
size = [|
  100,44,37 |
  90,78,55 |
  65,57,42 |
  85,58,41 |
  81,69,50 |
  84,78,51 |
  109,73,73 |
  73,58,52 |
  73,49,40 |
  120,60,39 |
|];

verticality = [|
  0,1,1 |
  1,1,1 |
  1,1,1 |
  0,1,1 |
  1,1,1 |
  1,1,1 |
  1,1,1 |
  1,1,1 |
  1,1,1 |
  0,1,1 |
|];

box_count = [
  6,
  10,
  9,
  9,
  10,
  12,
  16,
  9,
  11,
  8,
];
